Normalized Data/p04_110_tsplib0_normalized_splitx10_0.vrp
NAME:p04_110_tsplib0_NORMALIZED_splitx10_
BEST_KNOWN: 0
COMMENT: 0
DIMENSION: 433
CAPACITY: 1000
EDGE_WEIGHT_FORMAT: FUNCTION
EDGE_WEIGHT_TYPE: EXACT_2D
NODE_COORD_SECTION
1 0.00000 0.00000
2 2 17
3 2 17
4 2 17
5 2 17
6 14 14
7 14 14
8 14 14
9 14 14
10 17 29
11 17 29
12 17 29
13 -15 -9
14 -15 -9
15 5 -5
16 5 -5
17 5 -5
18 5 -5
19 5 -5
20 -14 12
21 -14 12
22 -14 12
23 -14 12
24 -18 28
25 -4 27
26 17 -2
27 17 -2
28 16 -14
29 7 6
30 7 6
31 7 6
32 7 6
33 -4 -3
34 -4 -3
35 -4 -3
36 -4 -3
37 -30 -10
38 -23 7
39 1 -19
40 1 -19
41 1 -19
42 17 6
43 17 6
44 17 6
45 -8 -12
46 -18 -2
47 -22 -22
48 -22 -22
49 -22 -22
50 -22 -22
51 22 23
52 27 7
53 7 22
54 7 22
55 -19 22
56 -19 22
57 -27 17
58 -27 17
59 -28 3
60 -28 3
61 -28 3
62 -28 3
63 -8 33
64 -8 33
65 -8 33
66 -5 13
67 8 32
68 8 32
69 8 32
70 23 13
71 23 13
72 23 -8
73 2 34
74 2 34
75 2 34
76 2 34
77 3 11
78 3 11
79 3 11
80 3 11
81 11 -25
82 11 -25
83 11 -25
84 11 -25
85 26 -2
86 26 -2
87 27 28
88 27 28
89 27 28
90 27 28
91 28 34
92 -3 -13
93 -3 -13
94 -3 -13
95 -3 -13
96 10 0
97 24 -20
98 -30 -29
99 -30 -29
100 -30 -29
101 -30 -29
102 -25 -18
103 -25 -18
104 -14 -25
105 -30 29
106 -30 29
107 -5 -20
108 -5 -20
109 -5 -20
110 4 -25
111 4 -25
112 4 -25
113 4 -25
114 -3 4
115 -3 4
116 -3 4
117 -10 -3
118 -10 20
119 -10 20
120 -10 20
121 -10 20
122 13 -7
123 13 -7
124 13 -7
125 13 -7
126 21 2
127 21 2
128 6 14
129 6 14
130 0 -18
131 0 -18
132 20 10
133 20 -15
134 20 -15
135 20 -15
136 20 -15
137 20 -15
138 -20 -5
139 -20 -5
140 -20 -5
141 -10 -5
142 -10 -5
143 -10 -5
144 -15 15
145 -15 15
146 -15 15
147 -25 8
148 -25 8
149 -25 8
150 20 25
151 20 25
152 20 25
153 20 25
154 -5 25
155 -5 25
156 -5 25
157 -5 25
158 -15 30
159 -15 30
160 -15 30
161 -15 30
162 15 0
163 15 0
164 15 0
165 -5 -10
166 -5 -10
167 -5 -10
168 -20 -25
169 -20 -25
170 -20 -25
171 -5 -30
172 -5 -30
173 -5 -30
174 -5 -30
175 -25 -15
176 -30 -5
177 -30 -5
178 -30 -5
179 -30 -5
180 -15 5
181 -20 25
182 -20 25
183 -20 25
184 -20 25
185 -20 25
186 10 30
187 10 30
188 10 30
189 10 30
190 10 -15
191 10 -15
192 10 -15
193 10 -15
194 10 -15
195 10 -25
196 10 -25
197 10 -25
198 10 -25
199 10 -25
200 20 -30
201 20 -30
202 20 -30
203 20 -30
204 30 0
205 30 0
206 30 0
207 30 0
208 30 0
209 30 -15
210 10 -5
211 10 -5
212 10 -5
213 0 5
214 0 5
215 6 2
216 6 2
217 6 2
218 29 7
219 29 7
220 5 25
221 5 25
222 5 25
223 5 25
224 -4 17
225 -4 17
226 0 34
227 0 34
228 0 34
229 18 17
230 18 17
231 18 17
232 30 20
233 30 20
234 28 30
235 28 30
236 28 30
237 28 30
238 28 30
239 -33 25
240 -33 25
241 -33 25
242 -33 25
243 -15 -15
244 -15 -15
245 -15 -15
246 -15 -15
247 -15 -15
248 -30 -30
249 -30 -30
250 -30 -30
251 -30 -30
252 25 -23
253 25 -23
254 25 -23
255 25 -23
256 5 -10
257 5 -10
258 7 -28
259 7 -28
260 7 -28
261 7 -28
262 -11 -23
263 -11 -23
264 -12 -32
265 -12 -32
266 -24 -21
267 -24 -21
268 -24 -21
269 -24 -21
270 -24 -21
271 -29 3
272 -29 3
273 -29 3
274 -33 13
275 -33 13
276 -33 13
277 -33 13
278 -27 21
279 -27 21
280 -27 21
281 -22 17
282 -22 17
283 -22 17
284 -22 17
285 -29 33
286 -29 33
287 -29 33
288 12 12
289 14 23
290 14 23
291 14 23
292 -8 8
293 -8 8
294 -8 8
295 -8 8
296 2 -4
297 2 -4
298 2 -4
299 22 -6
300 22 -6
301 22 -6
302 22 -6
303 22 -6
304 28 -12
305 28 -12
306 28 -12
307 28 -12
308 18 -23
309 18 -23
310 18 -23
311 -3 -23
312 1 -9
313 1 -9
314 -14 -11
315 -14 -11
316 -14 -11
317 -18 -1
318 -18 -1
319 -18 -1
320 -18 -1
321 -18 -1
322 -23 -11
323 -23 -11
324 -23 -11
325 -23 -11
326 -23 -11
327 -11 23
328 -11 23
329 -8 34
330 -20 42
331 -20 42
332 -20 42
333 27 42
334 27 42
335 27 42
336 14 38
337 14 38
338 14 38
339 14 38
340 32 -30
341 32 -30
342 32 -30
343 32 -30
344 21 4
345 21 4
346 21 4
347 21 4
348 2 12
349 2 12
350 2 12
351 2 21
352 2 21
353 2 21
354 2 21
355 2 21
356 22 33
357 22 33
358 22 33
359 22 33
360 12 -19
361 9 -18
362 11 -22
363 11 -22
364 11 -22
365 11 -22
366 14 -24
367 14 -24
368 14 7
369 18 8
370 18 8
371 18 8
372 18 8
373 18 8
374 26 17
375 22 13
376 22 13
377 22 13
378 21 2
379 20 19
380 20 19
381 -20 12
382 -20 12
383 -21 2
384 -21 2
385 -21 2
386 -24 -4
387 -24 -4
388 -24 -4
389 -19 -13
390 -19 -13
391 -19 -13
392 -19 -13
393 -31 -17
394 -31 -17
395 -7 -17
396 -7 -17
397 -9 17
398 -9 17
399 -9 17
400 -9 0
401 -9 0
402 -9 0
403 -4 32
404 -4 32
405 -4 32
406 -4 32
407 -4 32
408 -20 -16
409 -20 -16
410 -13 -13
411 -13 -13
412 -17 -11
413 -17 -11
414 -9 -8
415 -9 -8
416 -10 -11
417 -10 -11
418 -13 -8
419 -13 -8
420 -13 -8
421 -10 -14
422 -10 -14
423 -10 -14
424 -10 -14
425 -10 -14
426 -16 -14
427 -16 -14
428 -15 -9
429 -15 -9
430 -17 -17
431 -17 -17
432 -17 -17
433 -17 -17
DEMAND_SECTION
1 0
2 50
3 10
4 10
5 10
6 10
7 10
8 10
9 10
10 10
11 10
12 10
13 50
14 10
15 50
16 10
17 10
18 10
19 10
20 50
21 10
22 10
23 10
24 50
25 10
26 10
27 10
28 10
29 50
30 10
31 10
32 10
33 10
34 10
35 10
36 10
37 50
38 50
39 50
40 10
41 10
42 10
43 10
44 10
45 10
46 50
47 50
48 10
49 10
50 10
51 50
52 10
53 50
54 10
55 50
56 10
57 50
58 10
59 50
60 10
61 10
62 10
63 50
64 10
65 10
66 10
67 50
68 10
69 10
70 10
71 10
72 10
73 50
74 10
75 10
76 10
77 50
78 10
79 10
80 10
81 50
82 10
83 10
84 10
85 10
86 10
87 50
88 10
89 10
90 10
91 50
92 50
93 10
94 10
95 10
96 50
97 50
98 50
99 10
100 10
101 10
102 10
103 10
104 10
105 50
106 10
107 50
108 10
109 10
110 50
111 10
112 10
113 10
114 10
115 10
116 10
117 50
118 10
119 10
120 10
121 10
122 50
123 10
124 10
125 10
126 50
127 10
128 50
129 10
130 50
131 10
132 10
133 50
134 10
135 10
136 10
137 10
138 50
139 10
140 10
141 50
142 10
143 10
144 10
145 10
146 10
147 50
148 10
149 10
150 10
151 10
152 10
153 10
154 10
155 10
156 10
157 10
158 50
159 10
160 10
161 10
162 10
163 10
164 10
165 10
166 10
167 10
168 10
169 10
170 10
171 10
172 10
173 10
174 10
175 50
176 50
177 10
178 10
179 10
180 10
181 50
182 10
183 10
184 10
185 10
186 50
187 10
188 10
189 10
190 50
191 10
192 10
193 10
194 10
195 50
196 10
197 10
198 10
199 10
200 50
201 10
202 10
203 10
204 50
205 10
206 10
207 10
208 10
209 10
210 10
211 10
212 10
213 50
214 10
215 50
216 10
217 10
218 50
219 10
220 50
221 10
222 10
223 10
224 50
225 10
226 10
227 10
228 10
229 50
230 10
231 10
232 50
233 10
234 50
235 10
236 10
237 10
238 10
239 50
240 10
241 10
242 10
243 50
244 10
245 10
246 10
247 10
248 50
249 10
250 10
251 10
252 50
253 10
254 10
255 10
256 10
257 10
258 50
259 10
260 10
261 10
262 50
263 10
264 10
265 10
266 50
267 10
268 10
269 10
270 10
271 50
272 10
273 10
274 50
275 10
276 10
277 10
278 50
279 10
280 10
281 10
282 10
283 10
284 10
285 50
286 10
287 10
288 10
289 50
290 10
291 10
292 50
293 10
294 10
295 10
296 50
297 10
298 10
299 50
300 10
301 10
302 10
303 10
304 10
305 10
306 10
307 10
308 10
309 10
310 10
311 10
312 50
313 10
314 10
315 10
316 10
317 50
318 10
319 10
320 10
321 10
322 50
323 10
324 10
325 10
326 10
327 50
328 10
329 10
330 10
331 10
332 10
333 50
334 10
335 10
336 10
337 10
338 10
339 10
340 10
341 10
342 10
343 10
344 50
345 10
346 10
347 10
348 50
349 10
350 10
351 50
352 10
353 10
354 10
355 10
356 10
357 10
358 10
359 10
360 50
361 10
362 10
363 10
364 10
365 10
366 50
367 10
368 50
369 50
370 10
371 10
372 10
373 10
374 50
375 50
376 10
377 10
378 50
379 50
380 10
381 50
382 10
383 50
384 10
385 10
386 50
387 10
388 10
389 50
390 10
391 10
392 10
393 50
394 10
395 50
396 10
397 10
398 10
399 10
400 10
401 10
402 10
403 50
404 10
405 10
406 10
407 10
408 50
409 10
410 50
411 10
412 50
413 10
414 10
415 10
416 50
417 10
418 50
419 10
420 10
421 50
422 10
423 10
424 10
425 10
426 10
427 10
428 50
429 10
430 10
431 10
432 10
433 10
DEPOT_SECTION
1
-1
EOF