Normalized Data/p04_110_tsplib0_normalized_splitx10_0.sol
432 -15 18 17 14 16 256 255 193 192 190 189 191 360 359 27 135 136 132 133 134 71 298 299 302 301 300 84 85 203 205 206 207 204 218 217 51 346 343 345 344 125 126 377 25 26 161 162 163 95 215 216 214 -31 30 28 29 288 289 290 10 11 9 336 337 335 338 186 187 188 185 68 66 67 73 74 72 75 226 225 227 403 405 402 404 406 328 64 63 62 24 156 153 154 155 327 326 119 117 120 118 396 397 398 224 223 65 291 292 114 115 113 -35 34 32 33 142 140 141 314 313 315 426 425 429 431 430 432 408 407 174 102 101 265 267 268 266 269 49 47 46 48 169 168 167 247 248 249 250 97 99 98 100 393 392 36 387 386 385 139 137 138 116 -45 316 317 320 319 318 382 384 383 37 148 147 146 61 60 58 59 270 272 271 177 176 175 178 323 321 322 325 324 388 391 390 389 412 411 12 427 428 13 417 419 418 414 413 -79 77 78 76 128 127 52 53 219 220 221 222 353 354 351 350 352 4 2 1 3 349 347 348 212 213 -130 129 38 40 39 111 109 110 112 257 258 259 260 197 195 194 196 198 82 81 80 83 361 362 363 364 366 365 309 307 308 199 202 201 200 342 339 340 341 251 254 252 253 96 208 306 305 304 303 121 122 123 124 210 209 211 -166 165 164 44 416 415 421 422 423 420 424 410 409 244 246 245 242 243 261 262 103 263 264 170 173 171 172 310 107 106 108 394 395 94 91 92 93 312 311 295 296 297 -287 8 7 5 6 230 229 228 378 379 50 150 149 151 152 358 356 357 355 332 334 333 90 237 236 235 234 233 86 88 87 89 232 231 373 69 70 374 375 376 131 371 372 370 368 369 42 43 41 367 -294 293 20 22 21 19 143 144 145 55 54 180 184 181 183 182 23 157 158 159 160 330 329 331 285 286 284 105 104 241 238 239 240 279 277 278 275 273 274 276 56 57 283 282 280 281 380 381 179 399 401 400 0 





OBJ=
926.705
BEST_KNOWN=
0.000